Traveling Salesman Problem/TSP_generados/Aleatorio1620390853_5.tsp
NAME: Aleatorio1620390853_5.tsp
COMMENT: Randomly generated scenario
TYPE: TSP
DIMENSION: 5
EDGE_WEIGHT_TYPE: ATT
NODE_COORD_SECTION
1 44.48 37.53
2 14.01 41.68
3 8.84 32.53
4 22.92 34.82
5 14.39 32.71
