Traveling Salesman Problem/TSP_generados/Aleatorio1620390853_5.opt.tour
NAME: Aleatorio1620390853_5.opt.tour
COMMENT: Optimal solution for Aleatorio1620390853_5 (77.33056272844223)
TYPE: TOUR
DIMENSION: 5
TOUR_SECTION
1 2 3 5 4
-1
EOF
